# Generated by ConicBenchmarkUtilities.jl
VER
2

OBJSENSE
MIN

VAR
309 1
F 309

INT
104
11
12
13
14
15
16
17
18
19
20
21
22
23
24
25
26
27
28
29
30
31
32
33
34
61
62
63
64
65
66
67
68
69
70
71
72
73
74
75
76
77
78
79
80
81
82
83
84
85
86
87
88
89
90
91
92
93
94
95
96
97
98
99
100
169
170
171
172
173
174
175
176
178
179
180
182
183
184
186
187
188
190
191
192
194
195
196
198
199
200
202
203
204
206
207
208
209
210
211
212
213
214
215
216

CON
960 904
L= 1
L= 1
L= 1
L= 1
L= 1
L= 1
L= 1
L= 1
L= 1
L= 1
L= 1
L= 1
L= 1
L= 1
L= 1
L= 1
L= 1
L= 1
L= 1
L= 1
L= 1
L= 1
L= 1
L= 1
L= 1
L= 1
L= 1
L= 1
L= 1
L= 1
L= 1
L= 1
L= 1
L= 1
L= 1
L= 1
L+ 1
L+ 1
L+ 1
L+ 1
L+ 1
L+ 1
L+ 1
L+ 1
L+ 1
L+ 1
L+ 1
L= 1
L= 1
L= 1
L= 1
L= 1
L= 1
L= 1
L= 1
L= 1
L= 1
L= 1
L= 1
L= 1
L= 1
L= 1
L= 1
L= 1
L= 1
L= 1
L= 1
L+ 1
L+ 1
L+ 1
L+ 1
L+ 1
L+ 1
L+ 1
L+ 1
L+ 1
L+ 1
L+ 1
L+ 1
L+ 1
L+ 1
L+ 1
L+ 1
L+ 1
L+ 1
L+ 1
L+ 1
L+ 1
L+ 1
L+ 1
L+ 1
L+ 1
L+ 1
L+ 1
L+ 1
L+ 1
L+ 1
L+ 1
L+ 1
L+ 1
L+ 1
L+ 1
L+ 1
L+ 1
L+ 1
L+ 1
L+ 1
L+ 1
L+ 1
L+ 1
L+ 1
L+ 1
L+ 1
L+ 1
L+ 1
L+ 1
L+ 1
L+ 1
L+ 1
L+ 1
L+ 1
L+ 1
L+ 1
L+ 1
L+ 1
L+ 1
L+ 1
L+ 1
L+ 1
L+ 1
L+ 1
L+ 1
L+ 1
L+ 1
L+ 1
L+ 1
L+ 1
L+ 1
L+ 1
L+ 1
L+ 1
L+ 1
L+ 1
L+ 1
L+ 1
L+ 1
L+ 1
L+ 1
L+ 1
L+ 1
L+ 1
L+ 1
L+ 1
L+ 1
L+ 1
L+ 1
L+ 1
L+ 1
L+ 1
L+ 1
L+ 1
L+ 1
L+ 1
L+ 1
L+ 1
L+ 1
L+ 1
L+ 1
L+ 1
L+ 1
L+ 1
L+ 1
L+ 1
L+ 1
L+ 1
L+ 1
L+ 1
L+ 1
L+ 1
L+ 1
L+ 1
L+ 1
L+ 1
L+ 1
L+ 1
L+ 1
L+ 1
L+ 1
L+ 1
L+ 1
L+ 1
L+ 1
L+ 1
L+ 1
L+ 1
L+ 1
L+ 1
L+ 1
L+ 1
L+ 1
L+ 1
L+ 1
L+ 1
L+ 1
L+ 1
L+ 1
L+ 1
L+ 1
L+ 1
L+ 1
L+ 1
L+ 1
L+ 1
L+ 1
L+ 1
L+ 1
L+ 1
L+ 1
L+ 1
L+ 1
L+ 1
L+ 1
L+ 1
L+ 1
L+ 1
L+ 1
L+ 1
L+ 1
L+ 1
L+ 1
L+ 1
L+ 1
L+ 1
L+ 1
L+ 1
L+ 1
L+ 1
L+ 1
L+ 1
L+ 1
L+ 1
L+ 1
L+ 1
L+ 1
L+ 1
L+ 1
L+ 1
L= 1
L= 1
L= 1
L= 1
L= 1
L= 1
L= 1
L= 1
L= 1
L= 1
L= 1
L= 1
L= 1
L= 1
L= 1
L= 1
L= 1
L= 1
L= 1
L= 1
L= 1
L= 1
L= 1
L= 1
L= 1
L= 1
L= 1
L= 1
L= 1
L= 1
L= 1
L= 1
L= 1
EXP 3
L+ 1
L+ 1
L+ 1
EXP 3
L+ 1
L+ 1
L+ 1
L+ 1
L+ 1
L+ 1
L+ 1
EXP 3
L+ 1
L+ 1
L+ 1
L+ 1
L+ 1
L+ 1
L+ 1
L+ 1
L+ 1
L+ 1
EXP 3
L+ 1
L+ 1
L+ 1
EXP 3
L+ 1
L+ 1
L+ 1
EXP 3
L+ 1
L+ 1
L+ 1
L+ 1
L+ 1
L+ 1
L+ 1
L+ 1
L+ 1
L+ 1
L+ 1
EXP 3
L+ 1
L+ 1
L+ 1
L+ 1
L+ 1
L+ 1
L+ 1
L+ 1
L+ 1
L+ 1
EXP 3
L+ 1
L+ 1
L+ 1
EXP 3
L+ 1
L+ 1
L+ 1
EXP 3
L+ 1
EXP 3
L+ 1
L+ 1
L+ 1
L+ 1
L+ 1
L+ 1
L+ 1
L+ 1
L+ 1
L+ 1
L+ 1
L+ 1
EXP 3
L+ 1
L+ 1
L+ 1
EXP 3
L+ 1
L+ 1
L+ 1
EXP 3
L+ 1
L+ 1
L+ 1
EXP 3
L+ 1
L+ 1
L+ 1
EXP 3
L+ 1
L+ 1
L+ 1
L+ 1
L+ 1
L+ 1
L+ 1
EXP 3
L+ 1
L+ 1
L+ 1
L+ 1
L+ 1
L+ 1
L+ 1
L+ 1
L+ 1
L+ 1
EXP 3
L+ 1
L+ 1
L+ 1
EXP 3
L+ 1
L+ 1
L+ 1
EXP 3
L+ 1
L+ 1
L+ 1
L+ 1
L+ 1
L+ 1
L+ 1
L+ 1
L+ 1
L+ 1
L+ 1
EXP 3
L+ 1
L+ 1
L+ 1
L+ 1
L+ 1
L+ 1
L+ 1
L+ 1
L+ 1
L+ 1
EXP 3
L+ 1
L+ 1
L+ 1
EXP 3
L+ 1
L+ 1
L+ 1
EXP 3
L+ 1
EXP 3
L+ 1
L+ 1
L+ 1
L+ 1
L+ 1
L+ 1
L+ 1
L+ 1
L+ 1
L+ 1
L+ 1
L+ 1
EXP 3
L+ 1
L+ 1
L+ 1
EXP 3
L+ 1
L+ 1
L+ 1
EXP 3
L+ 1
L+ 1
L+ 1
L= 1
L+ 1
L+ 1
L+ 1
L+ 1
L+ 1
L+ 1
L+ 1
L+ 1
L+ 1
L+ 1
L+ 1
L+ 1
L+ 1
L+ 1
L+ 1
L+ 1
L+ 1
L+ 1
L+ 1
L+ 1
L+ 1
L+ 1
L+ 1
L+ 1
L+ 1
L+ 1
L+ 1
L+ 1
L+ 1
L+ 1
L+ 1
L+ 1
L+ 1
L+ 1
L+ 1
L+ 1
L+ 1
L+ 1
L+ 1
L+ 1
L+ 1
L+ 1
L+ 1
L+ 1
L+ 1
L+ 1
L+ 1
L+ 1
L+ 1
L+ 1
L+ 1
L+ 1
L+ 1
L+ 1
L+ 1
L+ 1
L+ 1
L+ 1
L+ 1
L+ 1
L+ 1
L+ 1
L+ 1
L+ 1
L+ 1
L+ 1
L+ 1
L+ 1
L+ 1
L+ 1
L+ 1
L+ 1
L+ 1
L+ 1
L+ 1
L+ 1
L+ 1
L+ 1
L+ 1
L+ 1
L+ 1
L+ 1
L+ 1
L+ 1
L+ 1
L+ 1
L+ 1
L+ 1
L+ 1
L+ 1
L+ 1
L+ 1
L+ 1
L+ 1
L+ 1
L+ 1
L+ 1
L+ 1
L+ 1
L+ 1
L+ 1
L+ 1
L+ 1
L+ 1
L+ 1
L+ 1
L+ 1
L+ 1
L+ 1
L+ 1
L+ 1
L+ 1
L+ 1
L+ 1
L+ 1
L+ 1
L+ 1
L+ 1
L+ 1
L+ 1
L+ 1
L+ 1
L+ 1
L+ 1
L+ 1
L+ 1
L+ 1
L+ 1
L+ 1
L+ 1
L+ 1
L+ 1
L+ 1
L+ 1
L+ 1
L+ 1
L+ 1
L+ 1
L+ 1
L+ 1
L+ 1
L+ 1
L+ 1
L+ 1
L+ 1
L+ 1
L+ 1
L+ 1
L+ 1
L+ 1
L+ 1
L+ 1
L+ 1
L+ 1
L+ 1
L+ 1
L+ 1
L+ 1
L+ 1
L+ 1
L+ 1
L+ 1
L+ 1
L+ 1
L+ 1
L+ 1
L+ 1
L+ 1
L+ 1
L+ 1
L+ 1
L+ 1
L+ 1
L+ 1
L+ 1
L+ 1
L+ 1
L+ 1
L+ 1
L+ 1
L+ 1
L+ 1
L+ 1
L+ 1
L+ 1
L+ 1
L+ 1
L+ 1
L+ 1
L+ 1
L+ 1
L+ 1
L+ 1
L+ 1
L+ 1
L+ 1
L+ 1
L+ 1
L+ 1
L+ 1
L+ 1
L+ 1
L+ 1
L+ 1
L+ 1
L+ 1
L+ 1
L+ 1
L+ 1
L+ 1
L+ 1
L+ 1
L+ 1
L+ 1
L+ 1
L+ 1
L+ 1
L+ 1
L+ 1
L+ 1
L+ 1
L+ 1
L+ 1
L+ 1
L+ 1
L+ 1
L+ 1
L+ 1
L+ 1
L+ 1
L+ 1
L+ 1
L+ 1
L+ 1
L+ 1
L+ 1
L+ 1
L+ 1
L+ 1
L+ 1
L+ 1
L+ 1
L+ 1
L+ 1
L+ 1
L+ 1
L+ 1
L+ 1
L+ 1
L+ 1
L+ 1
L+ 1
L+ 1
L+ 1
L+ 1
L+ 1
L+ 1
L+ 1
L+ 1
L+ 1
L+ 1
L+ 1
L+ 1
L+ 1
L+ 1
L+ 1
L+ 1
L+ 1
L+ 1
L+ 1
L+ 1
L+ 1
L+ 1
L+ 1
L+ 1
L+ 1
L+ 1
L+ 1
L+ 1
L+ 1
L+ 1
L+ 1
L+ 1
L+ 1
L+ 1
L+ 1
L+ 1
L+ 1
L+ 1
L+ 1
L+ 1
L+ 1
L+ 1
L+ 1
L+ 1
L+ 1
L+ 1
L+ 1
L+ 1
L+ 1
L+ 1
L+ 1
L+ 1
L+ 1
L+ 1
L+ 1
L+ 1
L+ 1
L+ 1
L+ 1
L+ 1
L+ 1
L+ 1
L+ 1
L+ 1
L+ 1
L+ 1
L+ 1
L+ 1
L+ 1
L+ 1
L+ 1
L+ 1
L+ 1
L+ 1
L+ 1
L+ 1
L+ 1
L+ 1
L+ 1
L+ 1
L+ 1
L+ 1
L+ 1
L+ 1
L+ 1
L+ 1
L+ 1
L+ 1
L+ 1
L+ 1
L+ 1
L+ 1
L+ 1
L+ 1
L+ 1
L+ 1
L+ 1
L+ 1
L+ 1
L+ 1
L+ 1
L+ 1
L+ 1
L+ 1
L+ 1
L+ 1
L+ 1
L+ 1
L+ 1
L+ 1
L+ 1
L+ 1
L+ 1
L+ 1
L+ 1
L+ 1
L+ 1
L+ 1
L+ 1
L+ 1
L+ 1
L+ 1
L+ 1
L+ 1
L+ 1
L+ 1
L+ 1
L+ 1
L+ 1
L+ 1
L+ 1
L+ 1
L+ 1
L+ 1
L+ 1
L+ 1
L+ 1
L+ 1
L+ 1
L+ 1
L+ 1
L+ 1
L+ 1
L+ 1
L+ 1
L+ 1
L+ 1
L+ 1
L+ 1
L+ 1
L+ 1
L+ 1
L+ 1
L+ 1
L+ 1
L+ 1
L+ 1
L+ 1
L+ 1
L+ 1
L+ 1
L+ 1
L+ 1
L+ 1
L+ 1
L+ 1
L+ 1
L+ 1
L+ 1
L+ 1
L+ 1
L+ 1
L+ 1
L+ 1
L+ 1
L+ 1
L+ 1
L+ 1
L+ 1
L+ 1
L+ 1
L+ 1
L+ 1
L+ 1
L+ 1
L+ 1
L+ 1
L+ 1
L+ 1
L+ 1
L+ 1
L+ 1
L+ 1
L+ 1

OBJACOORD
1
101 -1.0

ACOORD
1738
0 0 -10.0
1 0 1.0
42 0 -1.0
47 0 1.0
246 0 -10.0
569 0 1.0
0 1 -15.0
6 1 1.0
43 1 -1.0
49 1 1.0
246 1 -15.0
574 1 1.0
0 2 -18.0
10 2 1.0
44 2 -1.0
51 2 1.0
246 2 -18.0
578 2 1.0
0 3 -19.0
22 3 1.0
45 3 -1.0
55 3 1.0
246 3 -19.0
590 3 1.0
0 4 35.0
26 4 1.0
36 4 1.0
56 4 -1.0
594 4 1.0
0 5 28.0
28 5 1.0
37 5 1.0
57 5 -1.0
596 5 1.0
0 6 -16.0
29 6 1.0
46 6 -1.0
58 6 1.0
246 6 -16.0
597 6 1.0
0 7 2.0
32 7 1.0
38 7 1.0
255 7 -1.0
600 7 1.0
0 8 3.0
33 8 1.0
39 8 1.0
256 8 -1.0
601 8 1.0
0 9 5.0
34 9 1.0
40 9 1.0
257 9 -1.0
602 9 1.0
0 10 4.0
35 10 1.0
41 10 1.0
258 10 -1.0
603 10 1.0
0 11 -6.0
71 11 -148.75
75 11 -148.75
151 11 -25.0
247 11 1.0
657 11 1.0
658 11 -1.0
0 12 -40.0
72 12 -148.75
76 12 -148.75
152 12 15.0
247 12 1.0
659 12 1.0
660 12 -1.0
0 13 -46.0
73 13 -148.75
77 13 -148.75
153 13 15.0
247 13 1.0
661 13 1.0
662 13 -1.0
0 14 -7.0
79 14 -254.045833333333
83 14 -166.25
155 14 -56.0
248 14 1.0
665 14 1.0
666 14 -1.0
0 15 -30.0
80 15 -254.045833333333
84 15 -166.25
156 15 -36.0
248 15 1.0
667 15 1.0
668 15 -1.0
0 16 -37.0
81 16 -254.045833333333
85 16 -166.25
157 16 -36.0
248 16 1.0
669 16 1.0
670 16 -1.0
0 17 -7.0
87 17 -20.4166666666667
91 17 -20.4166666666667
95 17 -20.4166666666667
99 17 -20.4166666666667
159 17 -10.0
249 17 1.0
673 17 1.0
674 17 -1.0
0 18 -15.0
88 18 -20.4166666666667
92 18 -20.4166666666667
96 18 -20.4166666666667
100 18 -20.4166666666667
249 18 1.0
675 18 1.0
676 18 -1.0
0 19 -22.0
89 19 -20.4166666666667
93 19 -20.4166666666667
97 19 -20.4166666666667
101 19 -20.4166666666667
249 19 1.0
677 19 1.0
678 19 -1.0
0 20 -11.0
103 20 -18.75
107 20 -18.75
163 20 -10.0
250 20 1.0
681 20 1.0
682 20 -1.0
0 21 -13.0
104 21 -18.75
108 21 -18.75
164 21 -5.0
250 21 1.0
683 21 1.0
684 21 -1.0
0 22 -24.0
105 22 -18.75
109 22 -18.75
165 22 -5.0
250 22 1.0
685 22 1.0
686 22 -1.0
0 23 -10.0
111 23 -17.8125
115 23 -17.8125
119 23 -17.8125
123 23 -17.8125
167 23 -15.0
251 23 1.0
689 23 1.0
690 23 -1.0
0 24 -13.0
112 24 -17.8125
116 24 -17.8125
120 24 -17.8125
124 24 -17.8125
168 24 -5.0
251 24 1.0
691 24 1.0
692 24 -1.0
0 25 -23.0
113 25 -17.8125
117 25 -17.8125
121 25 -17.8125
125 25 -17.8125
169 25 -5.0
251 25 1.0
693 25 1.0
694 25 -1.0
0 26 -9.0
127 26 -66.9375
131 26 -15.9375
171 26 -29.0
252 26 1.0
697 26 1.0
698 26 -1.0
0 27 -30.0
128 27 -66.9375
132 27 -15.9375
172 27 6.0
252 27 1.0
699 27 1.0
700 27 -1.0
0 28 -39.0
129 28 -66.9375
133 28 -15.9375
173 28 6.0
252 28 1.0
701 28 1.0
702 28 -1.0
0 29 -8.0
135 29 -94.4571428571429
139 29 -57.0
175 29 -29.0
253 29 1.0
705 29 1.0
706 29 -1.0
0 30 -20.0
136 30 -94.4571428571429
140 30 -57.0
176 30 -4.0
253 30 1.0
707 30 1.0
708 30 -1.0
0 31 -28.0
137 31 -94.4571428571429
141 31 -57.0
177 31 -4.0
253 31 1.0
709 31 1.0
710 31 -1.0
0 32 -8.0
143 32 -39.4285714285714
147 32 -39.4285714285714
179 32 -15.0
254 32 1.0
713 32 1.0
714 32 -1.0
0 33 -15.0
144 33 -39.4285714285714
148 33 -39.4285714285714
180 33 5.0
254 33 1.0
715 33 1.0
716 33 -1.0
0 34 -23.0
145 34 -39.4285714285714
149 34 -39.4285714285714
181 34 5.0
254 34 1.0
717 34 1.0
718 34 -1.0
0 35 -1.0
255 35 -1.0
259 35 1.0
783 35 1.0
784 35 -1.0
0 36 5.0
261 36 -1.0
790 36 1.0
0 37 -2.0
256 37 -1.0
304 37 0.5
305 37 -0.5
307 37 -1.0
795 37 1.0
796 37 -1.0
0 38 -10.0
257 38 -1.0
343 38 1.0
344 38 -1.0
346 38 -1.0
813 38 1.0
814 38 -1.0
0 39 -5.0
258 39 -1.0
266 39 -1.0
815 39 1.0
816 39 -1.0
0 40 40.0
341 40 -1.0
342 40 1.0
343 40 -1.0
344 40 1.0
347 40 -1.0
823 40 1.0
0 41 15.0
351 41 -1.0
353 41 -1.0
824 41 1.0
0 42 10.0
357 42 -1.0
359 42 -1.0
825 42 1.0
0 43 30.0
363 43 -1.0
367 43 -1.0
370 43 -1.0
826 43 1.0
0 44 35.0
371 44 -1.0
372 44 1.0
374 44 -1.0
827 44 1.0
0 45 20.0
375 45 -1.0
376 45 1.0
378 45 -1.0
828 45 1.0
0 46 25.0
382 46 -1.0
384 46 -1.0
829 46 1.0
0 47 15.0
388 47 -1.0
390 47 -1.0
830 47 1.0
0 48 30.0
272 48 -1.0
838 48 1.0
0 49 -1.0
421 49 0.5
422 49 -0.5
424 49 -1.0
843 49 1.0
844 49 -1.0
0 50 -5.0
460 50 1.0
461 50 -1.0
463 50 -1.0
861 50 1.0
862 50 -1.0
0 51 -1.0
277 51 -1.0
863 51 1.0
864 51 -1.0
0 52 120.0
458 52 -1.0
459 52 1.0
460 52 -1.0
461 52 1.0
464 52 -1.0
871 52 1.0
0 53 140.0
468 53 -1.0
470 53 -1.0
872 53 1.0
0 54 90.0
474 54 -1.0
476 54 -1.0
873 54 1.0
0 55 80.0
480 55 -1.0
484 55 -1.0
487 55 -1.0
874 55 1.0
0 56 285.0
488 56 -1.0
489 56 1.0
491 56 -1.0
875 56 1.0
0 57 290.0
492 57 -1.0
493 57 1.0
495 57 -1.0
876 57 1.0
0 58 280.0
499 58 -1.0
501 58 -1.0
877 58 1.0
0 59 290.0
505 59 -1.0
507 59 -1.0
878 59 1.0
0 60 350.0
511 60 -1.0
513 60 -1.0
879 60 1.0
0 61 -5.0
283 61 -1.0
284 61 40.0
285 61 3.71357206670431
514 61 1.0
564 61 1.0
565 61 1.0
566 61 1.0
880 61 1.0
881 61 -1.0
0 62 -8.0
289 62 -1.0
290 62 40.0
291 62 4.45628648004517
514 62 1.0
564 62 1.0
565 62 1.0
566 62 1.0
882 62 1.0
883 62 -1.0
0 63 -6.0
292 63 -1.0
293 63 -1.0
294 63 4.45628648004517
295 63 3.34221486003388
515 63 -1.0
524 63 1.0
525 63 1.0
564 63 -1.0
884 63 1.0
885 63 -1.0
0 64 -10.0
299 64 -1.0
300 64 4.45628648004517
301 64 2.54515263975353
518 64 -1.0
526 64 1.0
565 64 -1.0
886 64 1.0
887 64 -1.0
0 65 -6.0
302 65 -1.0
303 65 -1.0
304 65 -1.0
305 65 -1.0
306 65 4.45628648004517
307 65 30.0
308 65 15.0
520 65 -1.0
527 65 1.0
528 65 1.0
529 65 1.0
566 65 -1.0
888 65 1.0
889 65 -1.0
0 66 -7.0
312 66 -1.0
313 66 3.34221486003388
314 66 1.83548069293539
515 66 1.0
516 66 -1.0
524 66 -1.0
530 66 1.0
890 66 1.0
891 66 -1.0
0 67 -4.0
318 67 -1.0
319 67 3.34221486003388
320 67 1.32154609891348
515 67 1.0
517 67 -1.0
525 67 -1.0
531 67 1.0
892 67 1.0
893 67 -1.0
0 68 -5.0
324 68 -1.0
325 68 2.54515263975353
326 68 1.26558121681553
518 68 1.0
519 68 -1.0
526 68 -1.0
532 68 1.0
533 68 1.0
894 68 1.0
895 68 -1.0
0 69 -2.0
327 69 -1.0
328 69 -1.0
329 69 15.0
330 69 13.5
520 69 1.0
521 69 -1.0
527 69 -1.0
896 69 1.0
897 69 -1.0
0 70 -4.0
331 70 -1.0
332 70 -1.0
333 70 15.0
334 70 9.0
520 70 1.0
522 70 -1.0
528 70 -1.0
534 70 1.0
535 70 1.0
898 70 1.0
899 70 -1.0
0 71 -3.0
338 71 -1.0
339 71 15.0
340 71 3.04984759446376
520 71 1.0
523 71 -1.0
529 71 -1.0
536 71 1.0
537 71 1.0
538 71 1.0
900 71 1.0
901 71 -1.0
0 72 -7.0
341 72 -1.0
342 72 -1.0
343 72 -1.0
344 72 -1.0
345 72 1.83548069293539
346 72 20.0
347 72 20.0
516 72 1.0
530 72 -1.0
902 72 1.0
903 72 -1.0
0 73 -3.0
351 73 -1.0
352 73 1.32154609891348
353 73 0.842233385663186
517 73 1.0
531 73 -1.0
904 73 1.0
905 73 -1.0
0 74 -2.0
357 74 -1.0
358 74 1.26558121681553
359 74 0.572481933717686
519 74 1.0
532 74 -1.0
906 74 1.0
907 74 -1.0
0 75 -4.0
363 75 -1.0
367 75 -1.0
368 75 1.26558121681553
369 75 33.5
370 75 2.30162356062425
519 75 1.0
521 75 1.0
533 75 -1.0
908 75 1.0
909 75 -1.0
0 76 -2.0
371 76 -1.0
372 76 -1.0
373 76 9.0
374 76 9.0
522 76 1.0
534 76 -1.0
910 76 1.0
911 76 -1.0
0 77 -3.0
375 77 -1.0
376 77 -1.0
377 77 9.0
378 77 9.0
522 77 1.0
535 77 -1.0
912 77 1.0
913 77 -1.0
0 78 -5.0
382 78 -1.0
383 78 3.04984759446376
384 78 1.04900943706034
523 78 1.0
536 78 -1.0
914 78 1.0
915 78 -1.0
0 79 -2.0
388 79 -1.0
389 79 3.04984759446376
390 79 1.11894339953103
523 79 1.0
537 79 -1.0
916 79 1.0
917 79 -1.0
0 80 -1.0
394 80 -1.0
395 80 3.04984759446376
396 80 1.18887736200171
523 80 1.0
538 80 -1.0
539 80 -1.0
567 80 1.0
568 80 1.0
918 80 1.0
919 80 -1.0
0 81 -2.0
400 81 -1.0
401 81 1.18887736200171
402 81 0.78338879230327
539 81 1.0
567 81 -1.0
920 81 1.0
921 81 -1.0
0 82 -9.0
406 82 -1.0
407 82 1.18887736200171
408 82 0.940066550763924
539 82 1.0
568 82 -1.0
922 82 1.0
923 82 -1.0
0 83 -5.0
409 83 -1.0
410 83 -1.0
411 83 0.940066550763924
412 83 0.705049913072943
540 83 -1.0
549 83 1.0
550 83 1.0
924 83 1.0
925 83 -1.0
0 84 -2.0
416 84 -1.0
417 84 0.940066550763924
418 84 0.994083415506506
543 84 -1.0
553 84 1.0
926 84 1.0
927 84 -1.0
0 85 -10.0
419 85 -1.0
420 85 -1.0
421 85 -1.0
422 85 -1.0
423 85 0.940066550763924
424 85 30.0
425 85 15.0
545 85 -1.0
556 85 1.0
557 85 1.0
558 85 1.0
928 85 1.0
929 85 -1.0
0 86 -4.0
429 86 -1.0
430 86 0.705049913072943
431 86 0.666992981045719
540 86 1.0
541 86 -1.0
549 86 -1.0
551 86 1.0
930 86 1.0
931 86 -1.0
0 87 -7.0
435 87 -1.0
436 87 0.705049913072943
437 87 0.480234946352917
540 87 1.0
542 87 -1.0
550 87 -1.0
552 87 1.0
932 87 1.0
933 87 -1.0
0 88 -4.0
441 88 -1.0
442 88 0.994083415506506
443 88 0.690184503917672
543 88 1.0
544 88 -1.0
553 88 -1.0
554 88 1.0
555 88 1.0
934 88 1.0
935 88 -1.0
0 89 -2.0
444 89 -1.0
445 89 -1.0
446 89 15.0
447 89 13.5
545 89 1.0
546 89 -1.0
556 89 -1.0
936 89 1.0
937 89 -1.0
0 90 -8.0
448 90 -1.0
449 90 -1.0
450 90 15.0
451 90 9.0
545 90 1.0
547 90 -1.0
557 90 -1.0
559 90 1.0
560 90 1.0
938 90 1.0
939 90 -1.0
0 91 -9.0
455 91 -1.0
456 91 15.0
457 91 3.04984759446376
545 91 1.0
548 91 -1.0
558 91 -1.0
561 91 1.0
562 91 1.0
563 91 1.0
940 91 1.0
941 91 -1.0
0 92 -3.0
458 92 -1.0
459 92 -1.0
460 92 -1.0
461 92 -1.0
462 92 0.666992981045719
463 92 25.0
464 92 25.0
541 92 1.0
551 92 -1.0
942 92 1.0
943 92 -1.0
0 93 -5.0
468 93 -1.0
469 93 0.480234946352917
470 93 0.392200822712722
542 93 1.0
552 93 -1.0
944 93 1.0
945 93 -1.0
0 94 -5.0
474 94 -1.0
475 94 0.690184503917672
476 94 0.367386387824208
544 94 1.0
554 94 -1.0
946 94 1.0
947 94 -1.0
0 95 -6.0
480 95 -1.0
484 95 -1.0
485 95 0.690184503917672
486 95 38.5
487 95 2.3895954367396
544 95 1.0
546 95 1.0
555 95 -1.0
948 95 1.0
949 95 -1.0
0 96 -2.0
488 96 -1.0
489 96 -1.0
490 96 9.0
491 96 9.0
547 96 1.0
559 96 -1.0
950 96 1.0
951 96 -1.0
0 97 -6.0
492 97 -1.0
493 97 -1.0
494 97 9.0
495 97 9.0
547 97 1.0
560 97 -1.0
952 97 1.0
953 97 -1.0
0 98 -3.0
499 98 -1.0
500 98 3.04984759446376
501 98 1.04900943706034
548 98 1.0
561 98 -1.0
954 98 1.0
955 98 -1.0
0 99 -5.0
505 99 -1.0
506 99 3.04984759446376
507 99 1.11894339953103
548 99 1.0
562 99 -1.0
956 99 1.0
957 99 -1.0
0 100 -9.0
511 100 -1.0
512 100 3.04984759446376
513 100 1.18887736200171
548 100 1.0
563 100 -1.0
958 100 1.0
959 100 -1.0
0 101 -1.0
1 102 -0.2
604 102 1.0
2 103 1.0
47 103 -1.0
59 103 1.0
150 103 -1.0
151 103 -1.0
152 103 -1.0
153 103 -1.0
570 103 1.0
2 104 -0.2
70 104 0.8
71 104 0.85
72 104 0.8
73 104 0.85
74 104 -0.8
75 104 -0.85
76 104 -0.8
77 104 -0.85
605 104 1.0
3 105 1.0
47 105 -1.0
60 105 1.0
154 105 -1.0
155 105 -1.0
156 105 -1.0
157 105 -1.0
571 105 1.0
3 106 -0.2
67 106 -1.0
78 106 0.9
79 106 0.95
80 106 0.9
81 106 0.95
82 106 -0.9
83 106 -0.95
84 106 -0.9
85 106 -0.95
606 106 1.0
4 107 1.0
48 107 1.0
59 107 -1.0
572 107 1.0
4 108 -0.2
70 108 -1.0
71 108 -1.0
72 108 -1.0
73 108 -1.0
74 108 1.0
75 108 1.0
76 108 1.0
77 108 1.0
607 108 1.0
5 109 1.0
48 109 -1.0
255 109 1.0
573 109 1.0
5 110 -0.2
608 110 1.0
6 111 -0.5
609 111 1.0
7 112 1.0
49 112 -1.0
60 112 1.0
154 112 -1.0
155 112 -1.0
156 112 -1.0
157 112 -1.0
575 112 1.0
7 113 -0.5
67 113 1.0
610 113 1.0
8 114 1.0
50 114 1.0
60 114 -1.0
576 114 1.0
8 115 -0.7
78 115 -1.0
79 115 -1.0
80 115 -1.0
81 115 -1.0
82 115 1.0
83 115 1.0
84 115 1.0
85 115 1.0
611 115 1.0
9 116 1.0
50 116 -1.0
256 116 1.0
577 116 1.0
9 117 -0.7
612 117 1.0
10 118 -1.2
613 118 1.0
11 119 1.0
51 119 -1.0
61 119 1.0
158 119 -1.0
159 119 -1.0
160 119 -1.0
161 119 -1.0
579 119 1.0
11 120 -1.2
86 120 0.85
87 120 0.98
88 120 0.85
89 120 0.98
90 120 0.85
91 120 0.98
92 120 0.85
93 120 0.98
94 120 -0.85
95 120 -0.98
96 120 -0.85
97 120 -0.98
98 120 -0.85
99 120 -0.98
100 120 -0.85
101 120 -0.98
614 120 1.0
12 121 1.0
49 121 1.0
61 121 -1.0
580 121 1.0
12 122 -0.5
86 122 -1.0
87 122 -1.0
88 122 -1.0
89 122 -1.0
94 122 1.0
95 122 1.0
96 122 1.0
97 122 1.0
615 122 1.0
13 123 1.0
50 123 1.0
61 123 -1.0
581 123 1.0
13 124 -0.7
90 124 -1.0
91 124 -1.0
92 124 -1.0
93 124 -1.0
98 124 1.0
99 124 1.0
100 124 1.0
101 124 1.0
616 124 1.0
14 125 1.0
51 125 -1.0
62 125 1.0
162 125 -1.0
163 125 -1.0
164 125 -1.0
165 125 -1.0
582 125 1.0
14 126 -1.2
102 126 0.85
103 126 0.9
104 126 0.85
105 126 0.9
106 126 -0.85
107 126 -0.9
108 126 -0.85
109 126 -0.9
617 126 1.0
15 127 1.0
52 127 1.0
62 127 -1.0
583 127 1.0
15 128 -1.2
102 128 -1.0
103 128 -1.0
104 128 -1.0
105 128 -1.0
106 128 1.0
107 128 1.0
108 128 1.0
109 128 1.0
618 128 1.0
16 129 1.0
52 129 -1.0
64 129 1.0
170 129 -1.0
171 129 -1.0
172 129 -1.0
173 129 -1.0
584 129 1.0
16 130 -1.2
68 130 -1.0
126 130 0.8
127 130 0.85
128 130 0.8
129 130 0.85
130 130 -0.8
131 130 -0.85
132 130 -0.8
133 130 -0.85
619 130 1.0
17 131 1.0
52 131 -1.0
63 131 1.0
166 131 -1.0
167 131 -1.0
168 131 -1.0
169 131 -1.0
585 131 1.0
17 132 -1.2
110 132 0.75
111 132 0.95
112 132 0.9
113 132 0.95
114 132 0.75
115 132 0.95
116 132 0.9
117 132 0.95
118 132 -0.75
119 132 -0.95
120 132 -0.9
121 132 -0.95
122 132 -0.75
123 132 -0.95
124 132 -0.9
125 132 -0.95
620 132 1.0
18 133 1.0
53 133 1.0
63 133 -1.0
586 133 1.0
18 134 -0.3
110 134 -1.0
111 134 -1.0
112 134 -1.0
113 134 -1.0
118 134 1.0
119 134 1.0
120 134 1.0
121 134 1.0
621 134 1.0
19 135 1.0
54 135 1.0
63 135 -1.0
587 135 1.0
19 136 -0.9
114 136 -1.0
115 136 -1.0
116 136 -1.0
117 136 -1.0
122 136 1.0
123 136 1.0
124 136 1.0
125 136 1.0
622 136 1.0
20 137 1.0
53 137 -1.0
257 137 1.0
588 137 1.0
20 138 -0.3
623 138 1.0
21 139 1.0
54 139 -1.0
258 139 1.0
589 139 1.0
21 140 -0.9
624 140 1.0
22 141 -0.4
625 141 1.0
23 142 1.0
55 142 -1.0
64 142 1.0
170 142 -1.0
171 142 -1.0
172 142 -1.0
173 142 -1.0
591 142 1.0
23 143 -0.4
68 143 1.0
626 143 1.0
24 144 1.0
55 144 -1.0
65 144 1.0
174 144 -1.0
175 144 -1.0
176 144 -1.0
177 144 -1.0
592 144 1.0
24 145 -0.4
69 145 -1.0
134 145 0.85
135 145 0.95
136 145 0.85
137 145 0.95
138 145 -0.85
139 145 -0.95
140 145 -0.85
141 145 -0.95
627 145 1.0
25 146 1.0
56 146 1.0
64 146 -1.0
593 146 1.0
25 147 -1.6
126 147 -1.0
127 147 -1.0
128 147 -1.0
129 147 -1.0
130 147 1.0
131 147 1.0
132 147 1.0
133 147 1.0
628 147 1.0
26 148 -1.6
629 148 1.0
27 149 1.0
57 149 1.0
65 149 -1.0
595 149 1.0
27 150 -1.1
134 150 -1.0
135 150 -1.0
136 150 -1.0
137 150 -1.0
138 150 1.0
139 150 1.0
140 150 1.0
141 150 1.0
630 150 1.0
28 151 -1.1
631 151 1.0
29 152 -0.7
632 152 1.0
30 153 1.0
58 153 -1.0
66 153 1.0
178 153 -1.0
179 153 -1.0
180 153 -1.0
181 153 -1.0
598 153 1.0
30 154 -0.7
142 154 0.8
143 154 0.92
144 154 0.8
145 154 0.92
146 154 -0.8
147 154 -0.92
148 154 -0.8
149 154 -0.92
633 154 1.0
31 155 1.0
65 155 1.0
66 155 -1.0
174 155 -1.0
175 155 -1.0
176 155 -1.0
177 155 -1.0
599 155 1.0
31 156 -0.7
69 156 1.0
142 156 -1.0
143 156 -1.0
144 156 -1.0
145 156 -1.0
146 156 1.0
147 156 1.0
148 156 1.0
149 156 1.0
634 156 1.0
32 157 -0.2
635 157 1.0
33 158 -0.7
636 158 1.0
34 159 -0.3
637 159 1.0
35 160 -0.9
638 160 1.0
59 161 -1.0
639 161 1.0
60 162 -1.0
640 162 1.0
61 163 -1.0
641 163 1.0
62 164 -1.0
642 164 1.0
63 165 -1.0
643 165 1.0
64 166 -1.0
644 166 1.0
65 167 -1.0
645 167 1.0
66 168 -1.0
646 168 1.0
70 169 -148.75
74 169 -148.75
150 169 -25.0
247 169 1.0
655 169 1.0
656 169 -1.0
78 170 -254.045833333333
82 170 -166.25
154 170 -56.0
248 170 1.0
663 170 1.0
664 170 -1.0
86 171 -20.4166666666667
90 171 -20.4166666666667
94 171 -20.4166666666667
98 171 -20.4166666666667
158 171 -10.0
249 171 1.0
671 171 1.0
672 171 -1.0
102 172 -18.75
106 172 -18.75
162 172 -10.0
250 172 1.0
679 172 1.0
680 172 -1.0
110 173 -17.8125
114 173 -17.8125
118 173 -17.8125
122 173 -17.8125
166 173 -15.0
251 173 1.0
687 173 1.0
688 173 -1.0
126 174 -66.9375
130 174 -15.9375
170 174 -29.0
252 174 1.0
695 174 1.0
696 174 -1.0
134 175 -94.4571428571429
138 175 -57.0
174 175 -29.0
253 175 1.0
703 175 1.0
704 175 -1.0
142 176 -39.4285714285714
146 176 -39.4285714285714
178 176 -15.0
254 176 1.0
711 176 1.0
712 176 -1.0
182 177 -1.0
183 177 -1.0
184 177 -1.0
185 177 -1.0
214 177 1.0
215 177 1.0
216 177 1.0
217 177 1.0
246 177 -1.0
647 177 1.0
182 178 -46.0
719 178 1.0
720 178 -1.0
183 179 -40.0
215 179 -6.0
721 179 1.0
722 179 -1.0
184 180 -6.0
216 180 -40.0
723 180 1.0
724 180 -1.0
186 181 -1.0
187 181 -1.0
188 181 -1.0
189 181 -1.0
218 181 1.0
219 181 1.0
220 181 1.0
221 181 1.0
246 181 -1.0
648 181 1.0
186 182 -37.0
727 182 1.0
728 182 -1.0
187 183 -30.0
219 183 -7.0
729 183 1.0
730 183 -1.0
188 184 -7.0
220 184 -30.0
731 184 1.0
732 184 -1.0
190 185 -1.0
191 185 -1.0
192 185 -1.0
193 185 -1.0
222 185 1.0
223 185 1.0
224 185 1.0
225 185 1.0
246 185 -1.0
649 185 1.0
190 186 -22.0
735 186 1.0
736 186 -1.0
191 187 -15.0
223 187 -7.0
737 187 1.0
738 187 -1.0
192 188 -7.0
224 188 -15.0
739 188 1.0
740 188 -1.0
194 189 -1.0
195 189 -1.0
196 189 -1.0
197 189 -1.0
226 189 1.0
227 189 1.0
228 189 1.0
229 189 1.0
246 189 -1.0
650 189 1.0
194 190 -24.0
743 190 1.0
744 190 -1.0
195 191 -13.0
227 191 -11.0
745 191 1.0
746 191 -1.0
196 192 -11.0
228 192 -13.0
747 192 1.0
748 192 -1.0
198 193 -1.0
199 193 -1.0
200 193 -1.0
201 193 -1.0
230 193 1.0
231 193 1.0
232 193 1.0
233 193 1.0
246 193 -1.0
651 193 1.0
198 194 -23.0
751 194 1.0
752 194 -1.0
199 195 -13.0
231 195 -10.0
753 195 1.0
754 195 -1.0
200 196 -10.0
232 196 -13.0
755 196 1.0
756 196 -1.0
202 197 -1.0
203 197 -1.0
204 197 -1.0
205 197 -1.0
234 197 1.0
235 197 1.0
236 197 1.0
237 197 1.0
246 197 -1.0
652 197 1.0
202 198 -39.0
759 198 1.0
760 198 -1.0
203 199 -30.0
235 199 -9.0
761 199 1.0
762 199 -1.0
204 200 -9.0
236 200 -30.0
763 200 1.0
764 200 -1.0
206 201 -1.0
207 201 -1.0
208 201 -1.0
209 201 -1.0
238 201 1.0
239 201 1.0
240 201 1.0
241 201 1.0
246 201 -1.0
653 201 1.0
206 202 -28.0
767 202 1.0
768 202 -1.0
207 203 -20.0
239 203 -8.0
769 203 1.0
770 203 -1.0
208 204 -8.0
240 204 -20.0
771 204 1.0
772 204 -1.0
210 205 -1.0
211 205 -1.0
212 205 -1.0
213 205 -1.0
242 205 1.0
243 205 1.0
244 205 1.0
245 205 1.0
246 205 -1.0
654 205 1.0
210 206 -23.0
775 206 1.0
776 206 -1.0
211 207 -15.0
243 207 -8.0
777 207 1.0
778 207 -1.0
212 208 -8.0
244 208 -15.0
779 208 1.0
780 208 -1.0
217 209 -46.0
725 209 1.0
726 209 -1.0
221 210 -37.0
733 210 1.0
734 210 -1.0
225 211 -22.0
741 211 1.0
742 211 -1.0
229 212 -24.0
749 212 1.0
750 212 -1.0
233 213 -23.0
757 213 1.0
758 213 -1.0
237 214 -39.0
765 214 1.0
766 214 -1.0
241 215 -28.0
773 215 1.0
774 215 -1.0
245 216 -23.0
781 216 1.0
782 216 -1.0
259 217 -1.0
280 217 1.0
284 217 -1.0
785 217 1.0
259 218 -1.0
286 218 1.0
290 218 -1.0
786 218 1.0
260 219 -1.0
283 219 -1.0
285 219 -1.0
787 219 1.0
260 220 -1.0
289 220 -1.0
291 220 -1.0
788 220 1.0
260 221 1.0
261 221 1.0
789 221 1.0
261 222 -1.0
262 222 1.0
791 222 1.0
262 223 -1.0
292 223 0.75
293 223 -0.75
294 223 -1.0
792 223 1.0
262 224 -1.0
296 224 1.0
300 224 -1.0
793 224 1.0
262 225 -1.0
302 225 1.0
303 225 -1.0
306 225 -1.0
794 225 1.0
263 226 1.0
292 226 -1.0
293 226 1.0
295 226 -1.0
797 226 1.0
263 227 -1.0
309 227 1.0
313 227 -1.0
800 227 1.0
263 228 -1.0
315 228 1.0
319 228 -1.0
801 228 1.0
264 229 1.0
302 229 -1.0
303 229 1.0
304 229 -1.0
305 229 1.0
308 229 -1.0
799 229 1.0
264 230 -1.0
327 230 0.9
328 230 -0.9
329 230 -1.0
802 230 1.0
264 231 -1.0
331 231 0.6
332 231 -0.6
333 231 -1.0
803 231 1.0
264 232 -1.0
335 232 1.0
339 232 -1.0
804 232 1.0
265 233 1.0
324 233 -1.0
326 233 -1.0
807 233 1.0
265 234 -1.0
354 234 1.0
358 234 -1.0
811 234 1.0
265 235 -1.0
360 235 1.0
368 235 -1.0
812 235 1.0
266 236 -1.0
327 236 -1.0
328 236 1.0
330 236 -1.0
808 236 1.0
266 237 1.0
364 237 1.0
369 237 -1.0
817 237 1.0
267 238 1.0
331 238 -1.0
332 238 1.0
334 238 -1.0
809 238 1.0
267 239 -1.0
371 239 1.0
372 239 -1.0
373 239 -1.0
818 239 1.0
267 240 -1.0
375 240 1.0
376 240 -1.0
377 240 -1.0
819 240 1.0
268 241 1.0
338 241 -1.0
340 241 -1.0
810 241 1.0
268 242 -1.0
379 242 1.0
383 242 -1.0
820 242 1.0
268 243 -1.0
385 243 1.0
389 243 -1.0
821 243 1.0
268 244 -1.0
391 244 1.0
395 244 -1.0
822 244 1.0
269 245 1.0
394 245 -1.0
396 245 -1.0
831 245 1.0
269 246 -1.0
270 246 1.0
832 246 1.0
270 247 -1.0
397 247 1.0
401 247 -1.0
833 247 1.0
270 248 -1.0
403 248 1.0
407 248 -1.0
834 248 1.0
271 249 -1.0
400 249 -1.0
402 249 -1.0
835 249 1.0
271 250 -1.0
406 250 -1.0
408 250 -1.0
836 250 1.0
271 251 1.0
272 251 1.0
837 251 1.0
272 252 -1.0
273 252 1.0
839 252 1.0
273 253 -1.0
409 253 0.75
410 253 -0.75
411 253 -1.0
840 253 1.0
273 254 -1.0
413 254 1.0
417 254 -1.0
841 254 1.0
273 255 -1.0
419 255 1.0
420 255 -1.0
423 255 -1.0
842 255 1.0
274 256 1.0
409 256 -1.0
410 256 1.0
412 256 -1.0
845 256 1.0
274 257 -1.0
426 257 1.0
430 257 -1.0
848 257 1.0
274 258 -1.0
432 258 1.0
436 258 -1.0
849 258 1.0
275 259 1.0
419 259 -1.0
420 259 1.0
421 259 -1.0
422 259 1.0
425 259 -1.0
847 259 1.0
275 260 -1.0
444 260 0.9
445 260 -0.9
446 260 -1.0
850 260 1.0
275 261 -1.0
448 261 0.6
449 261 -0.6
450 261 -1.0
851 261 1.0
275 262 -1.0
452 262 1.0
456 262 -1.0
852 262 1.0
276 263 1.0
441 263 -1.0
443 263 -1.0
855 263 1.0
276 264 -1.0
471 264 1.0
475 264 -1.0
859 264 1.0
276 265 -1.0
477 265 1.0
485 265 -1.0
860 265 1.0
277 266 -1.0
444 266 -1.0
445 266 1.0
447 266 -1.0
856 266 1.0
277 267 1.0
481 267 1.0
486 267 -1.0
865 267 1.0
278 268 1.0
448 268 -1.0
449 268 1.0
451 268 -1.0
857 268 1.0
278 269 -1.0
488 269 1.0
489 269 -1.0
490 269 -1.0
866 269 1.0
278 270 -1.0
492 270 1.0
493 270 -1.0
494 270 -1.0
867 270 1.0
279 271 1.0
455 271 -1.0
457 271 -1.0
858 271 1.0
279 272 -1.0
496 272 1.0
500 272 -1.0
868 272 1.0
279 273 -1.0
502 273 1.0
506 273 -1.0
869 273 1.0
279 274 -1.0
508 274 1.0
512 274 -1.0
870 274 1.0
282 275 1.0
283 275 1.0
288 276 1.0
289 276 1.2
298 277 1.0
299 277 1.5
299 278 -1.0
301 278 -1.0
321 278 1.0
325 278 -1.0
798 278 1.0
311 279 1.0
312 279 1.25
312 280 -1.0
314 280 -1.0
341 280 0.9
342 280 -0.9
345 280 -1.0
805 280 1.0
317 281 1.0
318 281 0.9
318 282 -1.0
320 282 -1.0
348 282 1.0
352 282 -1.0
806 282 1.0
323 283 1.0
324 283 1.0
337 284 1.0
338 284 1.1
350 285 1.0
351 285 1.0
356 286 1.0
357 286 0.7
362 287 1.0
363 287 0.65
366 288 1.0
367 288 0.65
381 289 1.0
382 289 0.75
387 290 1.0
388 290 0.8
393 291 1.0
394 291 0.85
399 292 1.0
400 292 1.0
405 293 1.0
406 293 1.2
415 294 1.0
416 294 1.5
416 295 -1.0
418 295 -1.0
438 295 1.0
442 295 -1.0
846 295 1.0
428 296 1.0
429 296 1.25
429 297 -1.0
431 297 -1.0
458 297 0.9
459 297 -0.9
462 297 -1.0
853 297 1.0
434 298 1.0
435 298 0.9
435 299 -1.0
437 299 -1.0
465 299 1.0
469 299 -1.0
854 299 1.0
440 300 1.0
441 300 1.0
454 301 1.0
455 301 1.1
467 302 1.0
468 302 1.0
473 303 1.0
474 303 0.7
479 304 1.0
480 304 0.65
483 305 1.0
484 305 0.65
498 306 1.0
499 306 0.75
504 307 1.0
505 307 0.8
510 308 1.0
511 308 0.85

BCOORD
396
36 -1.2
37 -1.2
38 -1.1
39 -1.1
40 -1.4
41 -1.3
42 35.0
43 36.0
44 25.0
45 24.0
46 30.0
70 148.75
71 148.75
72 148.75
73 148.75
74 148.75
75 148.75
76 148.75
77 148.75
78 254.045833333333
79 254.045833333333
80 254.045833333333
81 254.045833333333
82 166.25
83 166.25
84 166.25
85 166.25
86 20.4166666666667
87 20.4166666666667
88 20.4166666666667
89 20.4166666666667
90 20.4166666666667
91 20.4166666666667
92 20.4166666666667
93 20.4166666666667
94 20.4166666666667
95 20.4166666666667
96 20.4166666666667
97 20.4166666666667
98 20.4166666666667
99 20.4166666666667
100 20.4166666666667
101 20.4166666666667
102 18.75
103 18.75
104 18.75
105 18.75
106 18.75
107 18.75
108 18.75
109 18.75
110 17.8125
111 17.8125
112 17.8125
113 17.8125
114 17.8125
115 17.8125
116 17.8125
117 17.8125
118 17.8125
119 17.8125
120 17.8125
121 17.8125
122 17.8125
123 17.8125
124 17.8125
125 17.8125
126 66.9375
127 66.9375
128 66.9375
129 66.9375
130 15.9375
131 15.9375
132 15.9375
133 15.9375
134 94.4571428571429
135 94.4571428571429
136 94.4571428571429
137 94.4571428571429
138 57.0
139 57.0
140 57.0
141 57.0
142 39.4285714285714
143 39.4285714285714
144 39.4285714285714
145 39.4285714285714
146 39.4285714285714
147 39.4285714285714
148 39.4285714285714
149 39.4285714285714
150 35.0
151 35.0
152 35.0
153 35.0
154 96.0
155 96.0
156 96.0
157 96.0
158 25.0
159 25.0
160 25.0
161 25.0
162 25.0
163 25.0
164 25.0
165 25.0
166 25.0
167 25.0
168 25.0
169 25.0
170 49.0
171 49.0
172 49.0
173 49.0
174 54.0
175 54.0
176 54.0
177 54.0
178 30.0
179 30.0
180 30.0
181 30.0
182 46.0
183 46.0
184 46.0
185 46.0
186 37.0
187 37.0
188 37.0
189 37.0
190 22.0
191 22.0
192 22.0
193 22.0
194 24.0
195 24.0
196 24.0
197 24.0
198 23.0
199 23.0
200 23.0
201 23.0
202 39.0
203 39.0
204 39.0
205 39.0
206 28.0
207 28.0
208 28.0
209 28.0
210 23.0
211 23.0
212 23.0
213 23.0
246 4000.0
247 -1.0
248 -1.0
249 -1.0
250 -1.0
251 -1.0
252 -1.0
253 -1.0
254 -1.0
280 1.0
281 1.0
283 1.0
286 1.0
287 1.0
289 1.0
292 1.0
293 1.0
296 1.0
297 1.0
299 1.0
302 1.0
303 1.0
304 1.0
305 1.0
309 1.0
310 1.0
312 1.0
315 1.0
316 1.0
318 1.0
321 1.0
322 1.0
324 1.0
327 1.0
328 1.0
331 1.0
332 1.0
335 1.0
336 1.0
338 1.0
341 1.0
342 1.0
343 1.0
344 1.0
348 1.0
349 1.0
351 1.0
354 1.0
355 1.0
357 1.0
360 1.0
361 1.0
363 1.0
364 1.0
365 1.0
367 1.0
371 1.0
372 1.0
375 1.0
376 1.0
379 1.0
380 1.0
382 1.0
385 1.0
386 1.0
388 1.0
391 1.0
392 1.0
394 1.0
397 1.0
398 1.0
400 1.0
403 1.0
404 1.0
406 1.0
409 1.0
410 1.0
413 1.0
414 1.0
416 1.0
419 1.0
420 1.0
421 1.0
422 1.0
426 1.0
427 1.0
429 1.0
432 1.0
433 1.0
435 1.0
438 1.0
439 1.0
441 1.0
444 1.0
445 1.0
448 1.0
449 1.0
452 1.0
453 1.0
455 1.0
458 1.0
459 1.0
460 1.0
461 1.0
465 1.0
466 1.0
468 1.0
471 1.0
472 1.0
474 1.0
477 1.0
478 1.0
480 1.0
481 1.0
482 1.0
484 1.0
488 1.0
489 1.0
492 1.0
493 1.0
496 1.0
497 1.0
499 1.0
502 1.0
503 1.0
505 1.0
508 1.0
509 1.0
511 1.0
514 -1.0
656 1.0
658 1.0
660 1.0
662 1.0
664 1.0
666 1.0
668 1.0
670 1.0
672 1.0
674 1.0
676 1.0
678 1.0
680 1.0
682 1.0
684 1.0
686 1.0
688 1.0
690 1.0
692 1.0
694 1.0
696 1.0
698 1.0
700 1.0
702 1.0
704 1.0
706 1.0
708 1.0
710 1.0
712 1.0
714 1.0
716 1.0
718 1.0
720 1.0
722 1.0
724 1.0
726 1.0
728 1.0
730 1.0
732 1.0
734 1.0
736 1.0
738 1.0
740 1.0
742 1.0
744 1.0
746 1.0
748 1.0
750 1.0
752 1.0
754 1.0
756 1.0
758 1.0
760 1.0
762 1.0
764 1.0
766 1.0
768 1.0
770 1.0
772 1.0
774 1.0
776 1.0
778 1.0
780 1.0
782 1.0
784 40.0
796 30.0
814 20.0
816 20.0
844 30.0
862 25.0
864 25.0
881 1.0
883 1.0
885 1.0
887 1.0
889 1.0
891 1.0
893 1.0
895 1.0
897 1.0
899 1.0
901 1.0
903 1.0
905 1.0
907 1.0
909 1.0
911 1.0
913 1.0
915 1.0
917 1.0
919 1.0
921 1.0
923 1.0
925 1.0
927 1.0
929 1.0
931 1.0
933 1.0
935 1.0
937 1.0
939 1.0
941 1.0
943 1.0
945 1.0
947 1.0
949 1.0
951 1.0
953 1.0
955 1.0
957 1.0
959 1.0
